p cnf 237 1134
c p weight 28 0 0
c p weight -28 1 0
c p weight 29 1 0
c p weight -29 1 0
c p weight 37 0 0
c p weight -37 1 0
c p weight 38 1 0
c p weight -38 1 0
c p weight 46 0 0
c p weight -46 1 0
c p weight 47 1 0
c p weight -47 1 0
c p weight 54 0 0
c p weight -54 1 0
c p weight 55 1 0
c p weight -55 1 0
c p weight 63 0 0
c p weight -63 1 0
c p weight 64 1 0
c p weight -64 1 0
c p weight 71 0 0
c p weight -71 1 0
c p weight 72 1 0
c p weight -72 1 0
c p weight 80 0 0
c p weight -80 1 0
c p weight 81 1 0
c p weight -81 1 0
c p weight 89 0 0
c p weight -89 1 0
c p weight 90 1 0
c p weight -90 1 0
c p weight 97 0 0
c p weight -97 1 0
c p weight 98 1 0
c p weight -98 1 0
c p weight 106 0 0
c p weight -106 1 0
c p weight 107 1 0
c p weight -107 1 0
c p weight 116 0 0
c p weight -116 1 0
c p weight 117 1 0
c p weight -117 1 0
c p weight 128 0 0
c p weight -128 1 0
c p weight 129 1 0
c p weight -129 1 0
c p weight 140 0 0
c p weight -140 1 0
c p weight 141 1 0
c p weight -141 1 0
c p weight 151 0 0
c p weight -151 1 0
c p weight 152 1 0
c p weight -152 1 0
c p weight 163 0 0
c p weight -163 1 0
c p weight 164 1 0
c p weight -164 1 0
c p weight 174 0 0
c p weight -174 1 0
c p weight 175 1 0
c p weight -175 1 0
c p weight 186 0 0
c p weight -186 1 0
c p weight 187 1 0
c p weight -187 1 0
c p weight 198 0 0
c p weight -198 1 0
c p weight 199 1 0
c p weight -199 1 0
c p weight 209 0 0
c p weight -209 1 0
c p weight 210 1 0
c p weight -210 1 0
c p weight 221 0 0
c p weight -221 1 0
c p weight 222 1 0
c p weight -222 1 0
c p weight 233 0 0
c p weight -233 1 0
c p weight 234 1 0
c p weight -234 1 0
c p weight 235 -1 0
c p weight -235 1 0
c p weight 237 0.5 0
237 0
-23 0
-21 0
-19 0
-17 0
-15 0
-13 0
-11 0
-9 0
-7 0
-5 0
-3 0
-1 0
24 -23 1 0
24 -23 2 0
-24 23 1 0
-24 23 2 0
24 23 -1 -2 0
-24 -23 -1 -2 0
25 1 -2 0
25 -1 2 0
-25 1 2 0
-25 -1 -2 0
26 27 -24 0
26 -24 25 0
-26 27 24 0
-26 24 25 0
26 -24 -1 0
-26 24 -1 0
26 -27 24 1 -25 0
-26 -27 -24 1 -25 0
27 -1 25 0
-27 1 25 0
-28 25 0
27 -28 -1 0
-27 -28 1 0
27 28 1 -25 0
-27 28 -1 -25 0
-29 25 0
27 -29 1 0
-27 -29 -1 0
27 29 -1 -25 0
-27 29 1 -25 0
30 -26 27 0
30 -26 25 0
-30 26 27 0
-30 26 25 0
30 26 -27 -25 0
-30 -26 -27 -25 0
31 27 -25 0
31 -27 25 0
-31 27 25 0
-31 -27 -25 0
32 30 -31 0
32 -30 31 0
-32 30 31 0
-32 -30 -31 0
33 -32 3 0
33 -32 4 0
-33 32 3 0
-33 32 4 0
33 32 -3 -4 0
-33 -32 -3 -4 0
34 3 -4 0
34 -3 4 0
-34 3 4 0
-34 -3 -4 0
35 36 -33 0
35 -33 34 0
-35 36 33 0
-35 33 34 0
35 -33 -3 0
-35 33 -3 0
35 -36 33 3 -34 0
-35 -36 -33 3 -34 0
36 -3 34 0
-36 3 34 0
-37 34 0
36 -37 -3 0
-36 -37 3 0
36 37 3 -34 0
-36 37 -3 -34 0
-38 34 0
36 -38 3 0
-36 -38 -3 0
36 38 -3 -34 0
-36 38 3 -34 0
39 -35 36 0
39 -35 34 0
-39 35 36 0
-39 35 34 0
39 35 -36 -34 0
-39 -35 -36 -34 0
40 36 -34 0
40 -36 34 0
-40 36 34 0
-40 -36 -34 0
41 39 -40 0
41 -39 40 0
-41 39 40 0
-41 -39 -40 0
42 -41 5 0
42 -41 6 0
-42 41 5 0
-42 41 6 0
42 41 -5 -6 0
-42 -41 -5 -6 0
43 5 -6 0
43 -5 6 0
-43 5 6 0
-43 -5 -6 0
44 45 -42 0
44 -42 43 0
-44 45 42 0
-44 42 43 0
44 -42 -5 0
-44 42 -5 0
44 -45 42 5 -43 0
-44 -45 -42 5 -43 0
45 -5 43 0
-45 5 43 0
-46 43 0
45 -46 -5 0
-45 -46 5 0
45 46 5 -43 0
-45 46 -5 -43 0
-47 43 0
45 -47 5 0
-45 -47 -5 0
45 47 -5 -43 0
-45 47 5 -43 0
48 -44 45 0
48 -44 43 0
-48 44 45 0
-48 44 43 0
48 44 -45 -43 0
-48 -44 -45 -43 0
49 45 -43 0
49 -45 43 0
-49 45 43 0
-49 -45 -43 0
50 -48 7 0
50 -48 8 0
-50 48 7 0
-50 48 8 0
50 48 -7 -8 0
-50 -48 -7 -8 0
51 7 -8 0
51 -7 8 0
-51 7 8 0
-51 -7 -8 0
52 53 -50 0
52 -50 51 0
-52 53 50 0
-52 50 51 0
52 -50 -7 0
-52 50 -7 0
52 -53 50 7 -51 0
-52 -53 -50 7 -51 0
53 -7 51 0
-53 7 51 0
-54 51 0
53 -54 -7 0
-53 -54 7 0
53 54 7 -51 0
-53 54 -7 -51 0
-55 51 0
53 -55 7 0
-53 -55 -7 0
53 55 -7 -51 0
-53 55 7 -51 0
56 -52 53 0
56 -52 51 0
-56 52 53 0
-56 52 51 0
56 52 -53 -51 0
-56 -52 -53 -51 0
57 53 -51 0
57 -53 51 0
-57 53 51 0
-57 -53 -51 0
58 56 -57 0
58 -56 57 0
-58 56 57 0
-58 -56 -57 0
59 -58 9 0
59 -58 10 0
-59 58 9 0
-59 58 10 0
59 58 -9 -10 0
-59 -58 -9 -10 0
60 9 -10 0
60 -9 10 0
-60 9 10 0
-60 -9 -10 0
61 62 -59 0
61 -59 60 0
-61 62 59 0
-61 59 60 0
61 -59 -9 0
-61 59 -9 0
61 -62 59 9 -60 0
-61 -62 -59 9 -60 0
62 -9 60 0
-62 9 60 0
-63 60 0
62 -63 -9 0
-62 -63 9 0
62 63 9 -60 0
-62 63 -9 -60 0
-64 60 0
62 -64 9 0
-62 -64 -9 0
62 64 -9 -60 0
-62 64 9 -60 0
65 -61 62 0
65 -61 60 0
-65 61 62 0
-65 61 60 0
65 61 -62 -60 0
-65 -61 -62 -60 0
66 62 -60 0
66 -62 60 0
-66 62 60 0
-66 -62 -60 0
67 -65 11 0
67 -65 12 0
-67 65 11 0
-67 65 12 0
67 65 -11 -12 0
-67 -65 -11 -12 0
68 11 -12 0
68 -11 12 0
-68 11 12 0
-68 -11 -12 0
69 70 -67 0
69 -67 68 0
-69 70 67 0
-69 67 68 0
69 -67 -11 0
-69 67 -11 0
69 -70 67 11 -68 0
-69 -70 -67 11 -68 0
70 -11 68 0
-70 11 68 0
-71 68 0
70 -71 -11 0
-70 -71 11 0
70 71 11 -68 0
-70 71 -11 -68 0
-72 68 0
70 -72 11 0
-70 -72 -11 0
70 72 -11 -68 0
-70 72 11 -68 0
73 -69 70 0
73 -69 68 0
-73 69 70 0
-73 69 68 0
73 69 -70 -68 0
-73 -69 -70 -68 0
74 70 -68 0
74 -70 68 0
-74 70 68 0
-74 -70 -68 0
75 73 -74 0
75 -73 74 0
-75 73 74 0
-75 -73 -74 0
76 -75 13 0
76 -75 14 0
-76 75 13 0
-76 75 14 0
76 75 -13 -14 0
-76 -75 -13 -14 0
77 13 -14 0
77 -13 14 0
-77 13 14 0
-77 -13 -14 0
78 79 -76 0
78 -76 77 0
-78 79 76 0
-78 76 77 0
78 -76 -13 0
-78 76 -13 0
78 -79 76 13 -77 0
-78 -79 -76 13 -77 0
79 -13 77 0
-79 13 77 0
-80 77 0
79 -80 -13 0
-79 -80 13 0
79 80 13 -77 0
-79 80 -13 -77 0
-81 77 0
79 -81 13 0
-79 -81 -13 0
79 81 -13 -77 0
-79 81 13 -77 0
82 -78 79 0
82 -78 77 0
-82 78 79 0
-82 78 77 0
82 78 -79 -77 0
-82 -78 -79 -77 0
83 79 -77 0
83 -79 77 0
-83 79 77 0
-83 -79 -77 0
84 82 -83 0
84 -82 83 0
-84 82 83 0
-84 -82 -83 0
85 -84 15 0
85 -84 16 0
-85 84 15 0
-85 84 16 0
85 84 -15 -16 0
-85 -84 -15 -16 0
86 15 -16 0
86 -15 16 0
-86 15 16 0
-86 -15 -16 0
87 88 -85 0
87 -85 86 0
-87 88 85 0
-87 85 86 0
87 -85 -15 0
-87 85 -15 0
87 -88 85 15 -86 0
-87 -88 -85 15 -86 0
88 -15 86 0
-88 15 86 0
-89 86 0
88 -89 -15 0
-88 -89 15 0
88 89 15 -86 0
-88 89 -15 -86 0
-90 86 0
88 -90 15 0
-88 -90 -15 0
88 90 -15 -86 0
-88 90 15 -86 0
91 -87 88 0
91 -87 86 0
-91 87 88 0
-91 87 86 0
91 87 -88 -86 0
-91 -87 -88 -86 0
92 88 -86 0
92 -88 86 0
-92 88 86 0
-92 -88 -86 0
93 -91 17 0
93 -91 18 0
-93 91 17 0
-93 91 18 0
93 91 -17 -18 0
-93 -91 -17 -18 0
94 17 -18 0
94 -17 18 0
-94 17 18 0
-94 -17 -18 0
95 96 -93 0
95 -93 94 0
-95 96 93 0
-95 93 94 0
95 -93 -17 0
-95 93 -17 0
95 -96 93 17 -94 0
-95 -96 -93 17 -94 0
96 -17 94 0
-96 17 94 0
-97 94 0
96 -97 -17 0
-96 -97 17 0
96 97 17 -94 0
-96 97 -17 -94 0
-98 94 0
96 -98 17 0
-96 -98 -17 0
96 98 -17 -94 0
-96 98 17 -94 0
99 -95 96 0
99 -95 94 0
-99 95 96 0
-99 95 94 0
99 95 -96 -94 0
-99 -95 -96 -94 0
100 96 -94 0
100 -96 94 0
-100 96 94 0
-100 -96 -94 0
101 99 -100 0
101 -99 100 0
-101 99 100 0
-101 -99 -100 0
102 -101 19 0
102 -101 20 0
-102 101 19 0
-102 101 20 0
102 101 -19 -20 0
-102 -101 -19 -20 0
103 19 -20 0
103 -19 20 0
-103 19 20 0
-103 -19 -20 0
104 105 -102 0
104 -102 103 0
-104 105 102 0
-104 102 103 0
104 -102 -19 0
-104 102 -19 0
104 -105 102 19 -103 0
-104 -105 -102 19 -103 0
105 -19 103 0
-105 19 103 0
-106 103 0
105 -106 -19 0
-105 -106 19 0
105 106 19 -103 0
-105 106 -19 -103 0
-107 103 0
105 -107 19 0
-105 -107 -19 0
105 107 -19 -103 0
-105 107 19 -103 0
108 -104 105 0
108 -104 103 0
-108 104 105 0
-108 104 103 0
108 104 -105 -103 0
-108 -104 -105 -103 0
109 105 -103 0
109 -105 103 0
-109 105 103 0
-109 -105 -103 0
110 108 -109 0
110 -108 109 0
-110 108 109 0
-110 -108 -109 0
111 110 -22 0
111 -110 22 0
-111 110 22 0
-111 -110 -22 0
112 -111 21 0
112 -111 22 0
-112 111 21 0
-112 111 22 0
112 111 -21 -22 0
-112 -111 -21 -22 0
113 21 -22 0
113 -21 22 0
-113 21 22 0
-113 -21 -22 0
114 115 -112 0
114 -112 113 0
-114 115 112 0
-114 112 113 0
114 -112 -21 0
-114 112 -21 0
114 -115 112 21 -113 0
-114 -115 -112 21 -113 0
115 -21 113 0
-115 21 113 0
-116 113 0
115 -116 -21 0
-115 -116 21 0
115 116 21 -113 0
-115 116 -21 -113 0
-117 113 0
115 -117 21 0
-115 -117 -21 0
115 117 -21 -113 0
-115 117 21 -113 0
118 -114 115 0
118 -114 113 0
-118 114 115 0
-118 114 113 0
118 114 -115 -113 0
-118 -114 -115 -113 0
119 115 -113 0
119 -115 113 0
-119 115 113 0
-119 -115 -113 0
120 -118 27 0
120 -118 119 0
-120 118 27 0
-120 118 119 0
120 -118 115 -31 0
120 -118 -115 31 0
-120 118 115 -31 0
-120 118 -115 31 0
120 118 -27 115 31 -119 0
120 118 -27 -115 -31 -119 0
-120 -118 -27 115 31 -119 0
-120 -118 -27 -115 -31 -119 0
122 27 -115 0
122 -27 115 0
-122 27 115 0
-122 -27 -115 0
121 31 -119 0
121 -31 119 0
-121 31 119 0
-121 -31 -119 0
123 120 -121 0
123 -120 121 0
-123 120 121 0
-123 -120 -121 0
124 -123 27 0
124 -123 121 0
-124 123 27 0
-124 123 121 0
124 123 -27 -121 0
-124 -123 -27 -121 0
125 27 -121 0
125 -27 121 0
-125 27 121 0
-125 -27 -121 0
126 127 -124 0
126 -124 125 0
-126 127 124 0
-126 124 125 0
126 -124 -27 0
-126 124 -27 0
126 -127 124 27 -125 0
-126 -127 -124 27 -125 0
127 -27 125 0
-127 27 125 0
-128 125 0
127 -128 -27 0
-127 -128 27 0
127 128 27 -125 0
-127 128 -27 -125 0
-129 125 0
127 -129 27 0
-127 -129 -27 0
127 129 -27 -125 0
-127 129 27 -125 0
130 -126 127 0
130 -126 125 0
-130 126 127 0
-130 126 125 0
130 126 -127 -125 0
-130 -126 -127 -125 0
131 127 -125 0
131 -127 125 0
-131 127 125 0
-131 -127 -125 0
132 -130 36 0
132 -130 119 0
-132 130 36 0
-132 130 119 0
132 -130 122 -40 0
132 -130 -122 40 0
-132 130 122 -40 0
-132 130 -122 40 0
132 130 -36 122 40 -119 0
132 130 -36 -122 -40 -119 0
-132 -130 -36 122 40 -119 0
-132 -130 -36 -122 -40 -119 0
134 36 -122 0
134 -36 122 0
-134 36 122 0
-134 -36 -122 0
133 40 -119 0
133 -40 119 0
-133 40 119 0
-133 -40 -119 0
135 132 -133 0
135 -132 133 0
-135 132 133 0
-135 -132 -133 0
136 -135 36 0
136 -135 133 0
-136 135 36 0
-136 135 133 0
136 135 -36 -133 0
-136 -135 -36 -133 0
137 36 -133 0
137 -36 133 0
-137 36 133 0
-137 -36 -133 0
138 139 -136 0
138 -136 137 0
-138 139 136 0
-138 136 137 0
138 -136 -36 0
-138 136 -36 0
138 -139 136 36 -137 0
-138 -139 -136 36 -137 0
139 -36 137 0
-139 36 137 0
-140 137 0
139 -140 -36 0
-139 -140 36 0
139 140 36 -137 0
-139 140 -36 -137 0
-141 137 0
139 -141 36 0
-139 -141 -36 0
139 141 -36 -137 0
-139 141 36 -137 0
142 -138 139 0
142 -138 137 0
-142 138 139 0
-142 138 137 0
142 138 -139 -137 0
-142 -138 -139 -137 0
143 139 -137 0
143 -139 137 0
-143 139 137 0
-143 -139 -137 0
144 -142 45 0
144 -142 119 0
-144 142 45 0
-144 142 119 0
144 -142 134 -49 0
144 -142 -134 49 0
-144 142 134 -49 0
-144 142 -134 49 0
144 142 -45 134 49 -119 0
144 142 -45 -134 -49 -119 0
-144 -142 -45 134 49 -119 0
-144 -142 -45 -134 -49 -119 0
146 45 -134 0
146 -45 134 0
-146 45 134 0
-146 -45 -134 0
145 49 -119 0
145 -49 119 0
-145 49 119 0
-145 -49 -119 0
147 -144 45 0
147 -144 145 0
-147 144 45 0
-147 144 145 0
147 144 -45 -145 0
-147 -144 -45 -145 0
148 45 -145 0
148 -45 145 0
-148 45 145 0
-148 -45 -145 0
149 150 -147 0
149 -147 148 0
-149 150 147 0
-149 147 148 0
149 -147 -45 0
-149 147 -45 0
149 -150 147 45 -148 0
-149 -150 -147 45 -148 0
150 -45 148 0
-150 45 148 0
-151 148 0
150 -151 -45 0
-150 -151 45 0
150 151 45 -148 0
-150 151 -45 -148 0
-152 148 0
150 -152 45 0
-150 -152 -45 0
150 152 -45 -148 0
-150 152 45 -148 0
153 -149 150 0
153 -149 148 0
-153 149 150 0
-153 149 148 0
153 149 -150 -148 0
-153 -149 -150 -148 0
154 150 -148 0
154 -150 148 0
-154 150 148 0
-154 -150 -148 0
155 -153 53 0
155 -153 119 0
-155 153 53 0
-155 153 119 0
155 -153 146 -57 0
155 -153 -146 57 0
-155 153 146 -57 0
-155 153 -146 57 0
155 153 -53 146 57 -119 0
155 153 -53 -146 -57 -119 0
-155 -153 -53 146 57 -119 0
-155 -153 -53 -146 -57 -119 0
157 53 -146 0
157 -53 146 0
-157 53 146 0
-157 -53 -146 0
156 57 -119 0
156 -57 119 0
-156 57 119 0
-156 -57 -119 0
158 155 -156 0
158 -155 156 0
-158 155 156 0
-158 -155 -156 0
159 -158 53 0
159 -158 156 0
-159 158 53 0
-159 158 156 0
159 158 -53 -156 0
-159 -158 -53 -156 0
160 53 -156 0
160 -53 156 0
-160 53 156 0
-160 -53 -156 0
161 162 -159 0
161 -159 160 0
-161 162 159 0
-161 159 160 0
161 -159 -53 0
-161 159 -53 0
161 -162 159 53 -160 0
-161 -162 -159 53 -160 0
162 -53 160 0
-162 53 160 0
-163 160 0
162 -163 -53 0
-162 -163 53 0
162 163 53 -160 0
-162 163 -53 -160 0
-164 160 0
162 -164 53 0
-162 -164 -53 0
162 164 -53 -160 0
-162 164 53 -160 0
165 -161 162 0
165 -161 160 0
-165 161 162 0
-165 161 160 0
165 161 -162 -160 0
-165 -161 -162 -160 0
166 162 -160 0
166 -162 160 0
-166 162 160 0
-166 -162 -160 0
167 -165 62 0
167 -165 119 0
-167 165 62 0
-167 165 119 0
167 -165 157 -66 0
167 -165 -157 66 0
-167 165 157 -66 0
-167 165 -157 66 0
167 165 -62 157 66 -119 0
167 165 -62 -157 -66 -119 0
-167 -165 -62 157 66 -119 0
-167 -165 -62 -157 -66 -119 0
169 62 -157 0
169 -62 157 0
-169 62 157 0
-169 -62 -157 0
168 66 -119 0
168 -66 119 0
-168 66 119 0
-168 -66 -119 0
170 -167 62 0
170 -167 168 0
-170 167 62 0
-170 167 168 0
170 167 -62 -168 0
-170 -167 -62 -168 0
171 62 -168 0
171 -62 168 0
-171 62 168 0
-171 -62 -168 0
172 173 -170 0
172 -170 171 0
-172 173 170 0
-172 170 171 0
172 -170 -62 0
-172 170 -62 0
172 -173 170 62 -171 0
-172 -173 -170 62 -171 0
173 -62 171 0
-173 62 171 0
-174 171 0
173 -174 -62 0
-173 -174 62 0
173 174 62 -171 0
-173 174 -62 -171 0
-175 171 0
173 -175 62 0
-173 -175 -62 0
173 175 -62 -171 0
-173 175 62 -171 0
176 -172 173 0
176 -172 171 0
-176 172 173 0
-176 172 171 0
176 172 -173 -171 0
-176 -172 -173 -171 0
177 173 -171 0
177 -173 171 0
-177 173 171 0
-177 -173 -171 0
178 -176 70 0
178 -176 119 0
-178 176 70 0
-178 176 119 0
178 -176 169 -74 0
178 -176 -169 74 0
-178 176 169 -74 0
-178 176 -169 74 0
178 176 -70 169 74 -119 0
178 176 -70 -169 -74 -119 0
-178 -176 -70 169 74 -119 0
-178 -176 -70 -169 -74 -119 0
180 70 -169 0
180 -70 169 0
-180 70 169 0
-180 -70 -169 0
179 74 -119 0
179 -74 119 0
-179 74 119 0
-179 -74 -119 0
181 178 -179 0
181 -178 179 0
-181 178 179 0
-181 -178 -179 0
182 -181 70 0
182 -181 179 0
-182 181 70 0
-182 181 179 0
182 181 -70 -179 0
-182 -181 -70 -179 0
183 70 -179 0
183 -70 179 0
-183 70 179 0
-183 -70 -179 0
184 185 -182 0
184 -182 183 0
-184 185 182 0
-184 182 183 0
184 -182 -70 0
-184 182 -70 0
184 -185 182 70 -183 0
-184 -185 -182 70 -183 0
185 -70 183 0
-185 70 183 0
-186 183 0
185 -186 -70 0
-185 -186 70 0
185 186 70 -183 0
-185 186 -70 -183 0
-187 183 0
185 -187 70 0
-185 -187 -70 0
185 187 -70 -183 0
-185 187 70 -183 0
188 -184 185 0
188 -184 183 0
-188 184 185 0
-188 184 183 0
188 184 -185 -183 0
-188 -184 -185 -183 0
189 185 -183 0
189 -185 183 0
-189 185 183 0
-189 -185 -183 0
190 -188 79 0
190 -188 119 0
-190 188 79 0
-190 188 119 0
190 -188 180 -83 0
190 -188 -180 83 0
-190 188 180 -83 0
-190 188 -180 83 0
190 188 -79 180 83 -119 0
190 188 -79 -180 -83 -119 0
-190 -188 -79 180 83 -119 0
-190 -188 -79 -180 -83 -119 0
192 79 -180 0
192 -79 180 0
-192 79 180 0
-192 -79 -180 0
191 83 -119 0
191 -83 119 0
-191 83 119 0
-191 -83 -119 0
193 190 -191 0
193 -190 191 0
-193 190 191 0
-193 -190 -191 0
194 -193 79 0
194 -193 191 0
-194 193 79 0
-194 193 191 0
194 193 -79 -191 0
-194 -193 -79 -191 0
195 79 -191 0
195 -79 191 0
-195 79 191 0
-195 -79 -191 0
196 197 -194 0
196 -194 195 0
-196 197 194 0
-196 194 195 0
196 -194 -79 0
-196 194 -79 0
196 -197 194 79 -195 0
-196 -197 -194 79 -195 0
197 -79 195 0
-197 79 195 0
-198 195 0
197 -198 -79 0
-197 -198 79 0
197 198 79 -195 0
-197 198 -79 -195 0
-199 195 0
197 -199 79 0
-197 -199 -79 0
197 199 -79 -195 0
-197 199 79 -195 0
200 -196 197 0
200 -196 195 0
-200 196 197 0
-200 196 195 0
200 196 -197 -195 0
-200 -196 -197 -195 0
201 197 -195 0
201 -197 195 0
-201 197 195 0
-201 -197 -195 0
202 -200 88 0
202 -200 119 0
-202 200 88 0
-202 200 119 0
202 -200 192 -92 0
202 -200 -192 92 0
-202 200 192 -92 0
-202 200 -192 92 0
202 200 -88 192 92 -119 0
202 200 -88 -192 -92 -119 0
-202 -200 -88 192 92 -119 0
-202 -200 -88 -192 -92 -119 0
204 88 -192 0
204 -88 192 0
-204 88 192 0
-204 -88 -192 0
203 92 -119 0
203 -92 119 0
-203 92 119 0
-203 -92 -119 0
205 -202 88 0
205 -202 203 0
-205 202 88 0
-205 202 203 0
205 202 -88 -203 0
-205 -202 -88 -203 0
206 88 -203 0
206 -88 203 0
-206 88 203 0
-206 -88 -203 0
207 208 -205 0
207 -205 206 0
-207 208 205 0
-207 205 206 0
207 -205 -88 0
-207 205 -88 0
207 -208 205 88 -206 0
-207 -208 -205 88 -206 0
208 -88 206 0
-208 88 206 0
-209 206 0
208 -209 -88 0
-208 -209 88 0
208 209 88 -206 0
-208 209 -88 -206 0
-210 206 0
208 -210 88 0
-208 -210 -88 0
208 210 -88 -206 0
-208 210 88 -206 0
211 -207 208 0
211 -207 206 0
-211 207 208 0
-211 207 206 0
211 207 -208 -206 0
-211 -207 -208 -206 0
212 208 -206 0
212 -208 206 0
-212 208 206 0
-212 -208 -206 0
213 -211 96 0
213 -211 119 0
-213 211 96 0
-213 211 119 0
213 -211 204 -100 0
213 -211 -204 100 0
-213 211 204 -100 0
-213 211 -204 100 0
213 211 -96 204 100 -119 0
213 211 -96 -204 -100 -119 0
-213 -211 -96 204 100 -119 0
-213 -211 -96 -204 -100 -119 0
215 96 -204 0
215 -96 204 0
-215 96 204 0
-215 -96 -204 0
214 100 -119 0
214 -100 119 0
-214 100 119 0
-214 -100 -119 0
216 213 -214 0
216 -213 214 0
-216 213 214 0
-216 -213 -214 0
217 -216 96 0
217 -216 214 0
-217 216 96 0
-217 216 214 0
217 216 -96 -214 0
-217 -216 -96 -214 0
218 96 -214 0
218 -96 214 0
-218 96 214 0
-218 -96 -214 0
219 220 -217 0
219 -217 218 0
-219 220 217 0
-219 217 218 0
219 -217 -96 0
-219 217 -96 0
219 -220 217 96 -218 0
-219 -220 -217 96 -218 0
220 -96 218 0
-220 96 218 0
-221 218 0
220 -221 -96 0
-220 -221 96 0
220 221 96 -218 0
-220 221 -96 -218 0
-222 218 0
220 -222 96 0
-220 -222 -96 0
220 222 -96 -218 0
-220 222 96 -218 0
223 -219 220 0
223 -219 218 0
-223 219 220 0
-223 219 218 0
223 219 -220 -218 0
-223 -219 -220 -218 0
224 220 -218 0
224 -220 218 0
-224 220 218 0
-224 -220 -218 0
225 -223 105 0
225 -223 119 0
-225 223 105 0
-225 223 119 0
225 -223 215 -109 0
225 -223 -215 109 0
-225 223 215 -109 0
-225 223 -215 109 0
225 223 -105 215 109 -119 0
225 223 -105 -215 -109 -119 0
-225 -223 -105 215 109 -119 0
-225 -223 -105 -215 -109 -119 0
227 105 -215 0
227 -105 215 0
-227 105 215 0
-227 -105 -215 0
226 109 -119 0
226 -109 119 0
-226 109 119 0
-226 -109 -119 0
228 225 -226 0
228 -225 226 0
-228 225 226 0
-228 -225 -226 0
229 -228 105 0
229 -228 226 0
-229 228 105 0
-229 228 226 0
229 228 -105 -226 0
-229 -228 -105 -226 0
230 105 -226 0
230 -105 226 0
-230 105 226 0
-230 -105 -226 0
231 232 -229 0
231 -229 230 0
-231 232 229 0
-231 229 230 0
231 -229 -105 0
-231 229 -105 0
231 -232 229 105 -230 0
-231 -232 -229 105 -230 0
232 -105 230 0
-232 105 230 0
-233 230 0
232 -233 -105 0
-232 -233 105 0
232 233 105 -230 0
-232 233 -105 -230 0
-234 230 0
232 -234 105 0
-232 -234 -105 0
232 234 -105 -230 0
-232 234 105 -230 0
235 -231 232 0
235 -231 230 0
-235 231 232 0
-235 231 230 0
235 231 -232 -230 0
-235 -231 -232 -230 0
236 232 -230 0
236 -232 230 0
-236 232 230 0
-236 -232 -230 0
-127 0
-139 0
-143 0
-150 0
-154 0
-162 0
-166 0
-173 0
-177 0
-185 0
-189 0
-197 0
-201 0
-208 0
-212 0
-220 0
-224 0
-232 0
-236 0
-227 0
-119 0
